Maximize
  - 5.208305211318399 edge_0_1_0_0 - 4.993816198412 edge_0_2_0_0
   - 1.9861321944698 edge_0_3_0_0 - 4.92096 edge_0_5_0_0
   - 2.9615045212065 edge_0_9_0_0 - 3.33666933447 edge_0_16_0_0
   - 0.2764335970789501 edge_1_2_0_0 - 0.364153841915537 edge_1_3_0_0
   - 1.1363043341232 edge_1_5_0_0 - 0.4028513339718314 edge_1_6_0_0
   - 0.06367279733486 edge_1_7_0_0 - 0.1826770584025469 edge_1_11_0_0
   - 0.3042259794696454 edge_2_1_0_0 + 0.848098316574757 edge_2_3_0_0
   + 0.0395565001914412 edge_2_4_0_0 + 0.82330923605872 edge_2_5_0_0
   - 0.1672848672228731 edge_2_6_0_0 + 0.3476099980878041 edge_2_7_0_0
   - 0.5696937058823743 edge_2_9_0_0 - 0.4012805078787636 edge_2_11_0_0
   + 0.7261125839504102 edge_3_1_0_0 + 1.478043442237644 edge_3_2_0_0
   + 0.7695839416409331 edge_3_4_0_0 + 2.5630699270956 edge_3_5_0_0
   + 2.272989003338611 edge_3_6_0_0 + 2.955065180971798 edge_3_7_0_0
   - 0.1327622946783314 edge_3_8_0_0 + 1.573200906857638 edge_3_9_0_0
   + 1.291569500496215 edge_3_11_0_0 - 0.4746426564503894 edge_3_12_0_0
   - 0.3346753871573094 edge_3_13_0_0 - 0.3474915926535139 edge_3_15_0_0
   - 0.3127374624224424 edge_3_16_0_0 - 1.250151126655138 edge_4_1_0_0
   - 1.111605431252777 edge_4_2_0_0 - 0.0825513450053766 edge_4_6_0_0
   + 0.1638413090046125 edge_4_7_0_0 - 0.6828761680901176 edge_4_8_0_0
   - 0.5389710352231902 edge_4_9_0_0 - 0.0532617412553268 edge_4_11_0_0
   - 0.91693471827184 edge_5_1_0_0 - 0.34816029136024 edge_5_2_0_0
   + 0.014717142161404 edge_5_3_0_0 + 2.9691630668172 edge_5_4_0_0
   + 0.56733365165865 edge_5_6_0_0 + 0.73531481494368 edge_5_7_0_0
   + 0.082208661379785 edge_5_8_0_0 - 0.04999570750777 edge_5_9_0_0
   - 0.46875407596316 edge_5_11_0_0 - 1.0576593936732 edge_5_12_0_0
   - 1.7955546452125 edge_5_13_0_0 - 1.36895300381 edge_5_16_0_0
   - 0.7904599440515501 edge_6_5_0_0 - 0.2453316383768124 edge_6_7_0_0
   - 1.0916687749692 edge_7_5_0_0 + 0.1240647643764004 edge_7_6_0_0
   - 0.9160955625020296 edge_7_8_0_0 - 0.464190336921488 edge_7_9_0_0
   + 0.0135002975795207 edge_7_11_0_0 - 2.348522122040995 edge_8_1_0_0
   - 1.965028626788647 edge_8_3_0_0 - 1.246900190753959 edge_8_6_0_0
   - 0.5644612262220534 edge_8_7_0_0 + 0.7473614377410323 edge_8_9_0_0
   + 0.5325987409437155 edge_8_11_0_0 - 0.0442976680223151 edge_8_12_0_0
   - 0.5056410198863022 edge_8_13_0_0 - 0.9774648831993457 edge_8_16_0_0
   - 0.5675722529135496 edge_9_1_0_0 - 0.5627299731903436 edge_9_2_0_0
   - 0.5915905805909811 edge_9_3_0_0 - 0.1864704107652019 edge_9_4_0_0
   - 0.5998708902368 edge_9_5_0_0 + 0.2860413190105309 edge_9_6_0_0
   + 0.1801029865808584 edge_9_7_0_0 + 2.552415473760138 edge_9_8_0_0
   + 2.092601304704124 edge_9_11_0_0 + 0.7159317742362675 edge_9_12_0_0
   + 0.2890398599520199 edge_9_13_0_0 - 0.1467587108848026 edge_9_15_0_0
   + 0.498391367649764 edge_9_16_0_0 - 0.6047619321505239 edge_11_8_0_0
   - 0.4677698380955685 edge_11_9_0_0 - 1.024842967659783 edge_12_2_0_0
   - 1.845903031703576 edge_12_3_0_0 - 0.6684833262772121 edge_12_8_0_0
   + 0.0105664814824875 edge_12_13_0_0 + 0.5256729984385127 edge_12_15_0_0
   + 0.0309333570047021 edge_12_16_0_0 - 0.133771254684046 edge_13_12_0_0
   + 0.2083819049341684 edge_13_15_0_0 + 0.1923410685434239 edge_13_16_0_0
   - 1.688025309703338 edge_15_1_0_0 - 1.078116025651661 edge_15_2_0_0
   - 1.871332421073882 edge_15_3_0_0 - 1.0836198699656 edge_15_5_0_0
   - 0.9620287615178847 edge_15_8_0_0 + 0.2525600231831836 edge_15_12_0_0
   + 0.5739187096802466 edge_15_13_0_0 + 1.349740062306173 edge_15_16_0_0
   - 1.384114573346413 edge_16_1_0_0 - 0.3938068239351654 edge_16_2_0_0
   - 0.3498230766109059 edge_16_3_0_0 - 0.9499365693459999 edge_16_5_0_0
   - 1.610203850434506 edge_16_6_0_0 - 0.9573134974963111 edge_16_7_0_0
   + 0.2704075884457169 edge_16_8_0_0 - 0.0408734892998049 edge_16_9_0_0
   - 0.1272540572023743 edge_16_11_0_0 + 0.5053841512115436 edge_16_12_0_0
   + 1.542813991820125 edge_16_13_0_0 + 3.575834540579804 edge_16_15_0_0
Subject To
 one_parent_1: edge_0_1_0_0 + edge_2_1_0_0 + edge_3_1_0_0 + edge_4_1_0_0
   + edge_5_1_0_0 + edge_8_1_0_0 + edge_9_1_0_0 + edge_15_1_0_0
   + edge_16_1_0_0 = 1
 consume_one_flow_unit_1: flow_0_1_0_0 - flow_1_2_0_0 - flow_1_3_0_0
   - flow_1_5_0_0 - flow_1_6_0_0 - flow_1_7_0_0 - flow_1_11_0_0
   + flow_2_1_0_0 + flow_3_1_0_0 + flow_4_1_0_0 + flow_5_1_0_0
   + flow_8_1_0_0 + flow_9_1_0_0 + flow_15_1_0_0 + flow_16_1_0_0 = 1
 one_parent_2: edge_0_2_0_0 + edge_1_2_0_0 + edge_3_2_0_0 + edge_4_2_0_0
   + edge_5_2_0_0 + edge_9_2_0_0 + edge_12_2_0_0 + edge_15_2_0_0
   + edge_16_2_0_0 = 1
 consume_one_flow_unit_2: flow_0_2_0_0 + flow_1_2_0_0 - flow_2_1_0_0
   - flow_2_3_0_0 - flow_2_4_0_0 - flow_2_5_0_0 - flow_2_6_0_0
   - flow_2_7_0_0 - flow_2_9_0_0 - flow_2_11_0_0 + flow_3_2_0_0
   + flow_4_2_0_0 + flow_5_2_0_0 + flow_9_2_0_0 + flow_12_2_0_0
   + flow_15_2_0_0 + flow_16_2_0_0 = 1
 one_parent_3: edge_0_3_0_0 + edge_1_3_0_0 + edge_2_3_0_0 + edge_5_3_0_0
   + edge_8_3_0_0 + edge_9_3_0_0 + edge_12_3_0_0 + edge_15_3_0_0
   + edge_16_3_0_0 = 1
 consume_one_flow_unit_3: flow_0_3_0_0 + flow_1_3_0_0 + flow_2_3_0_0
   - flow_3_1_0_0 - flow_3_2_0_0 - flow_3_4_0_0 - flow_3_5_0_0
   - flow_3_6_0_0 - flow_3_7_0_0 - flow_3_8_0_0 - flow_3_9_0_0
   - flow_3_11_0_0 - flow_3_12_0_0 - flow_3_13_0_0 - flow_3_15_0_0
   - flow_3_16_0_0 + flow_5_3_0_0 + flow_8_3_0_0 + flow_9_3_0_0
   + flow_12_3_0_0 + flow_15_3_0_0 + flow_16_3_0_0 = 1
 one_parent_4: edge_2_4_0_0 + edge_3_4_0_0 + edge_5_4_0_0 + edge_9_4_0_0
   = 1
 consume_one_flow_unit_4: flow_2_4_0_0 + flow_3_4_0_0 - flow_4_1_0_0
   - flow_4_2_0_0 - flow_4_6_0_0 - flow_4_7_0_0 - flow_4_8_0_0
   - flow_4_9_0_0 - flow_4_11_0_0 + flow_5_4_0_0 + flow_9_4_0_0 = 1
 one_parent_5: edge_0_5_0_0 + edge_1_5_0_0 + edge_2_5_0_0 + edge_3_5_0_0
   + edge_6_5_0_0 + edge_7_5_0_0 + edge_9_5_0_0 + edge_15_5_0_0
   + edge_16_5_0_0 = 1
 consume_one_flow_unit_5: flow_0_5_0_0 + flow_1_5_0_0 + flow_2_5_0_0
   + flow_3_5_0_0 - flow_5_1_0_0 - flow_5_2_0_0 - flow_5_3_0_0
   - flow_5_4_0_0 - flow_5_6_0_0 - flow_5_7_0_0 - flow_5_8_0_0
   - flow_5_9_0_0 - flow_5_11_0_0 - flow_5_12_0_0 - flow_5_13_0_0
   - flow_5_16_0_0 + flow_6_5_0_0 + flow_7_5_0_0 + flow_9_5_0_0
   + flow_15_5_0_0 + flow_16_5_0_0 = 1
 one_parent_6: edge_1_6_0_0 + edge_2_6_0_0 + edge_3_6_0_0 + edge_4_6_0_0
   + edge_5_6_0_0 + edge_7_6_0_0 + edge_8_6_0_0 + edge_9_6_0_0
   + edge_16_6_0_0 = 1
 consume_one_flow_unit_6: flow_1_6_0_0 + flow_2_6_0_0 + flow_3_6_0_0
   + flow_4_6_0_0 + flow_5_6_0_0 - flow_6_5_0_0 - flow_6_7_0_0
   + flow_7_6_0_0 + flow_8_6_0_0 + flow_9_6_0_0 + flow_16_6_0_0 = 1
 one_parent_7: edge_1_7_0_0 + edge_2_7_0_0 + edge_3_7_0_0 + edge_4_7_0_0
   + edge_5_7_0_0 + edge_6_7_0_0 + edge_8_7_0_0 + edge_9_7_0_0
   + edge_16_7_0_0 = 1
 consume_one_flow_unit_7: flow_1_7_0_0 + flow_2_7_0_0 + flow_3_7_0_0
   + flow_4_7_0_0 + flow_5_7_0_0 + flow_6_7_0_0 - flow_7_5_0_0
   - flow_7_6_0_0 - flow_7_8_0_0 - flow_7_9_0_0 - flow_7_11_0_0
   + flow_8_7_0_0 + flow_9_7_0_0 + flow_16_7_0_0 = 1
 one_parent_8: edge_3_8_0_0 + edge_4_8_0_0 + edge_5_8_0_0 + edge_7_8_0_0
   + edge_9_8_0_0 + edge_11_8_0_0 + edge_12_8_0_0 + edge_15_8_0_0
   + edge_16_8_0_0 = 1
 consume_one_flow_unit_8: flow_3_8_0_0 + flow_4_8_0_0 + flow_5_8_0_0
   + flow_7_8_0_0 - flow_8_1_0_0 - flow_8_3_0_0 - flow_8_6_0_0
   - flow_8_7_0_0 - flow_8_9_0_0 - flow_8_11_0_0 - flow_8_12_0_0
   - flow_8_13_0_0 - flow_8_16_0_0 + flow_9_8_0_0 + flow_11_8_0_0
   + flow_12_8_0_0 + flow_15_8_0_0 + flow_16_8_0_0 = 1
 one_parent_9: edge_0_9_0_0 + edge_2_9_0_0 + edge_3_9_0_0 + edge_4_9_0_0
   + edge_5_9_0_0 + edge_7_9_0_0 + edge_8_9_0_0 + edge_11_9_0_0
   + edge_16_9_0_0 = 1
 consume_one_flow_unit_9: flow_0_9_0_0 + flow_2_9_0_0 + flow_3_9_0_0
   + flow_4_9_0_0 + flow_5_9_0_0 + flow_7_9_0_0 + flow_8_9_0_0
   - flow_9_1_0_0 - flow_9_2_0_0 - flow_9_3_0_0 - flow_9_4_0_0
   - flow_9_5_0_0 - flow_9_6_0_0 - flow_9_7_0_0 - flow_9_8_0_0
   - flow_9_11_0_0 - flow_9_12_0_0 - flow_9_13_0_0 - flow_9_15_0_0
   - flow_9_16_0_0 + flow_11_9_0_0 + flow_16_9_0_0 = 1
 one_parent_10: = 1
 consume_one_flow_unit_10: = 1
 one_parent_11: edge_1_11_0_0 + edge_2_11_0_0 + edge_3_11_0_0
   + edge_4_11_0_0 + edge_5_11_0_0 + edge_7_11_0_0 + edge_8_11_0_0
   + edge_9_11_0_0 + edge_16_11_0_0 = 1
 consume_one_flow_unit_11: flow_1_11_0_0 + flow_2_11_0_0 + flow_3_11_0_0
   + flow_4_11_0_0 + flow_5_11_0_0 + flow_7_11_0_0 + flow_8_11_0_0
   + flow_9_11_0_0 - flow_11_8_0_0 - flow_11_9_0_0 + flow_16_11_0_0 = 1
 one_parent_12: edge_3_12_0_0 + edge_5_12_0_0 + edge_8_12_0_0
   + edge_9_12_0_0 + edge_13_12_0_0 + edge_15_12_0_0 + edge_16_12_0_0 = 1
 consume_one_flow_unit_12: flow_3_12_0_0 + flow_5_12_0_0 + flow_8_12_0_0
   + flow_9_12_0_0 - flow_12_2_0_0 - flow_12_3_0_0 - flow_12_8_0_0
   - flow_12_13_0_0 - flow_12_15_0_0 - flow_12_16_0_0 + flow_13_12_0_0
   + flow_15_12_0_0 + flow_16_12_0_0 = 1
 one_parent_13: edge_3_13_0_0 + edge_5_13_0_0 + edge_8_13_0_0
   + edge_9_13_0_0 + edge_12_13_0_0 + edge_15_13_0_0 + edge_16_13_0_0 = 1
 consume_one_flow_unit_13: flow_3_13_0_0 + flow_5_13_0_0 + flow_8_13_0_0
   + flow_9_13_0_0 + flow_12_13_0_0 - flow_13_12_0_0 - flow_13_15_0_0
   - flow_13_16_0_0 + flow_15_13_0_0 + flow_16_13_0_0 = 1
 one_parent_14: = 1
 consume_one_flow_unit_14: = 1
 one_parent_15: edge_3_15_0_0 + edge_9_15_0_0 + edge_12_15_0_0
   + edge_13_15_0_0 + edge_16_15_0_0 = 1
 consume_one_flow_unit_15: flow_3_15_0_0 + flow_9_15_0_0 + flow_12_15_0_0
   + flow_13_15_0_0 - flow_15_1_0_0 - flow_15_2_0_0 - flow_15_3_0_0
   - flow_15_5_0_0 - flow_15_8_0_0 - flow_15_12_0_0 - flow_15_13_0_0
   - flow_15_16_0_0 + flow_16_15_0_0 = 1
 one_parent_16: edge_0_16_0_0 + edge_3_16_0_0 + edge_5_16_0_0
   + edge_8_16_0_0 + edge_9_16_0_0 + edge_12_16_0_0 + edge_13_16_0_0
   + edge_15_16_0_0 = 1
 consume_one_flow_unit_16: flow_0_16_0_0 + flow_3_16_0_0 + flow_5_16_0_0
   + flow_8_16_0_0 + flow_9_16_0_0 + flow_12_16_0_0 + flow_13_16_0_0
   + flow_15_16_0_0 - flow_16_1_0_0 - flow_16_2_0_0 - flow_16_3_0_0
   - flow_16_5_0_0 - flow_16_6_0_0 - flow_16_7_0_0 - flow_16_8_0_0
   - flow_16_9_0_0 - flow_16_11_0_0 - flow_16_12_0_0 - flow_16_13_0_0
   - flow_16_15_0_0 = 1
 one_parent_17: = 1
 consume_one_flow_unit_17: = 1
 root_flow: flow_0_1_0_0 + flow_0_2_0_0 + flow_0_3_0_0 + flow_0_5_0_0
   + flow_0_9_0_0 + flow_0_16_0_0 = 17
 inactive_no_flow_0_1_0_0: flow_0_1_0_0 - 1000 edge_0_1_0_0 <= 0
 inactive_no_flow_0_2_0_0: flow_0_2_0_0 - 1000 edge_0_2_0_0 <= 0
 inactive_no_flow_0_3_0_0: flow_0_3_0_0 - 1000 edge_0_3_0_0 <= 0
 inactive_no_flow_0_5_0_0: flow_0_5_0_0 - 1000 edge_0_5_0_0 <= 0
 inactive_no_flow_0_9_0_0: flow_0_9_0_0 - 1000 edge_0_9_0_0 <= 0
 inactive_no_flow_0_16_0_0: flow_0_16_0_0 - 1000 edge_0_16_0_0 <= 0
 inactive_no_flow_1_2_0_0: flow_1_2_0_0 - 1000 edge_1_2_0_0 <= 0
 inactive_no_flow_1_3_0_0: flow_1_3_0_0 - 1000 edge_1_3_0_0 <= 0
 inactive_no_flow_1_5_0_0: flow_1_5_0_0 - 1000 edge_1_5_0_0 <= 0
 inactive_no_flow_1_6_0_0: flow_1_6_0_0 - 1000 edge_1_6_0_0 <= 0
 inactive_no_flow_1_7_0_0: flow_1_7_0_0 - 1000 edge_1_7_0_0 <= 0
 inactive_no_flow_1_11_0_0: flow_1_11_0_0 - 1000 edge_1_11_0_0 <= 0
 inactive_no_flow_2_1_0_0: flow_2_1_0_0 - 1000 edge_2_1_0_0 <= 0
 inactive_no_flow_2_3_0_0: flow_2_3_0_0 - 1000 edge_2_3_0_0 <= 0
 inactive_no_flow_2_4_0_0: flow_2_4_0_0 - 1000 edge_2_4_0_0 <= 0
 inactive_no_flow_2_5_0_0: flow_2_5_0_0 - 1000 edge_2_5_0_0 <= 0
 inactive_no_flow_2_6_0_0: flow_2_6_0_0 - 1000 edge_2_6_0_0 <= 0
 inactive_no_flow_2_7_0_0: flow_2_7_0_0 - 1000 edge_2_7_0_0 <= 0
 inactive_no_flow_2_9_0_0: flow_2_9_0_0 - 1000 edge_2_9_0_0 <= 0
 inactive_no_flow_2_11_0_0: flow_2_11_0_0 - 1000 edge_2_11_0_0 <= 0
 inactive_no_flow_3_1_0_0: flow_3_1_0_0 - 1000 edge_3_1_0_0 <= 0
 inactive_no_flow_3_2_0_0: flow_3_2_0_0 - 1000 edge_3_2_0_0 <= 0
 inactive_no_flow_3_4_0_0: flow_3_4_0_0 - 1000 edge_3_4_0_0 <= 0
 inactive_no_flow_3_5_0_0: flow_3_5_0_0 - 1000 edge_3_5_0_0 <= 0
 inactive_no_flow_3_6_0_0: flow_3_6_0_0 - 1000 edge_3_6_0_0 <= 0
 inactive_no_flow_3_7_0_0: flow_3_7_0_0 - 1000 edge_3_7_0_0 <= 0
 inactive_no_flow_3_8_0_0: flow_3_8_0_0 - 1000 edge_3_8_0_0 <= 0
 inactive_no_flow_3_9_0_0: flow_3_9_0_0 - 1000 edge_3_9_0_0 <= 0
 inactive_no_flow_3_11_0_0: flow_3_11_0_0 - 1000 edge_3_11_0_0 <= 0
 inactive_no_flow_3_12_0_0: flow_3_12_0_0 - 1000 edge_3_12_0_0 <= 0
 inactive_no_flow_3_13_0_0: flow_3_13_0_0 - 1000 edge_3_13_0_0 <= 0
 inactive_no_flow_3_15_0_0: flow_3_15_0_0 - 1000 edge_3_15_0_0 <= 0
 inactive_no_flow_3_16_0_0: flow_3_16_0_0 - 1000 edge_3_16_0_0 <= 0
 inactive_no_flow_4_1_0_0: flow_4_1_0_0 - 1000 edge_4_1_0_0 <= 0
 inactive_no_flow_4_2_0_0: flow_4_2_0_0 - 1000 edge_4_2_0_0 <= 0
 inactive_no_flow_4_6_0_0: flow_4_6_0_0 - 1000 edge_4_6_0_0 <= 0
 inactive_no_flow_4_7_0_0: flow_4_7_0_0 - 1000 edge_4_7_0_0 <= 0
 inactive_no_flow_4_8_0_0: flow_4_8_0_0 - 1000 edge_4_8_0_0 <= 0
 inactive_no_flow_4_9_0_0: flow_4_9_0_0 - 1000 edge_4_9_0_0 <= 0
 inactive_no_flow_4_11_0_0: flow_4_11_0_0 - 1000 edge_4_11_0_0 <= 0
 inactive_no_flow_5_1_0_0: flow_5_1_0_0 - 1000 edge_5_1_0_0 <= 0
 inactive_no_flow_5_2_0_0: flow_5_2_0_0 - 1000 edge_5_2_0_0 <= 0
 inactive_no_flow_5_3_0_0: flow_5_3_0_0 - 1000 edge_5_3_0_0 <= 0
 inactive_no_flow_5_4_0_0: flow_5_4_0_0 - 1000 edge_5_4_0_0 <= 0
 inactive_no_flow_5_6_0_0: flow_5_6_0_0 - 1000 edge_5_6_0_0 <= 0
 inactive_no_flow_5_7_0_0: flow_5_7_0_0 - 1000 edge_5_7_0_0 <= 0
 inactive_no_flow_5_8_0_0: flow_5_8_0_0 - 1000 edge_5_8_0_0 <= 0
 inactive_no_flow_5_9_0_0: flow_5_9_0_0 - 1000 edge_5_9_0_0 <= 0
 inactive_no_flow_5_11_0_0: flow_5_11_0_0 - 1000 edge_5_11_0_0 <= 0
 inactive_no_flow_5_12_0_0: flow_5_12_0_0 - 1000 edge_5_12_0_0 <= 0
 inactive_no_flow_5_13_0_0: flow_5_13_0_0 - 1000 edge_5_13_0_0 <= 0
 inactive_no_flow_5_16_0_0: flow_5_16_0_0 - 1000 edge_5_16_0_0 <= 0
 inactive_no_flow_6_5_0_0: flow_6_5_0_0 - 1000 edge_6_5_0_0 <= 0
 inactive_no_flow_6_7_0_0: flow_6_7_0_0 - 1000 edge_6_7_0_0 <= 0
 inactive_no_flow_7_5_0_0: flow_7_5_0_0 - 1000 edge_7_5_0_0 <= 0
 inactive_no_flow_7_6_0_0: flow_7_6_0_0 - 1000 edge_7_6_0_0 <= 0
 inactive_no_flow_7_8_0_0: flow_7_8_0_0 - 1000 edge_7_8_0_0 <= 0
 inactive_no_flow_7_9_0_0: flow_7_9_0_0 - 1000 edge_7_9_0_0 <= 0
 inactive_no_flow_7_11_0_0: flow_7_11_0_0 - 1000 edge_7_11_0_0 <= 0
 inactive_no_flow_8_1_0_0: flow_8_1_0_0 - 1000 edge_8_1_0_0 <= 0
 inactive_no_flow_8_3_0_0: flow_8_3_0_0 - 1000 edge_8_3_0_0 <= 0
 inactive_no_flow_8_6_0_0: flow_8_6_0_0 - 1000 edge_8_6_0_0 <= 0
 inactive_no_flow_8_7_0_0: flow_8_7_0_0 - 1000 edge_8_7_0_0 <= 0
 inactive_no_flow_8_9_0_0: flow_8_9_0_0 - 1000 edge_8_9_0_0 <= 0
 inactive_no_flow_8_11_0_0: flow_8_11_0_0 - 1000 edge_8_11_0_0 <= 0
 inactive_no_flow_8_12_0_0: flow_8_12_0_0 - 1000 edge_8_12_0_0 <= 0
 inactive_no_flow_8_13_0_0: flow_8_13_0_0 - 1000 edge_8_13_0_0 <= 0
 inactive_no_flow_8_16_0_0: flow_8_16_0_0 - 1000 edge_8_16_0_0 <= 0
 inactive_no_flow_9_1_0_0: flow_9_1_0_0 - 1000 edge_9_1_0_0 <= 0
 inactive_no_flow_9_2_0_0: flow_9_2_0_0 - 1000 edge_9_2_0_0 <= 0
 inactive_no_flow_9_3_0_0: flow_9_3_0_0 - 1000 edge_9_3_0_0 <= 0
 inactive_no_flow_9_4_0_0: flow_9_4_0_0 - 1000 edge_9_4_0_0 <= 0
 inactive_no_flow_9_5_0_0: flow_9_5_0_0 - 1000 edge_9_5_0_0 <= 0
 inactive_no_flow_9_6_0_0: flow_9_6_0_0 - 1000 edge_9_6_0_0 <= 0
 inactive_no_flow_9_7_0_0: flow_9_7_0_0 - 1000 edge_9_7_0_0 <= 0
 inactive_no_flow_9_8_0_0: flow_9_8_0_0 - 1000 edge_9_8_0_0 <= 0
 inactive_no_flow_9_11_0_0: flow_9_11_0_0 - 1000 edge_9_11_0_0 <= 0
 inactive_no_flow_9_12_0_0: flow_9_12_0_0 - 1000 edge_9_12_0_0 <= 0
 inactive_no_flow_9_13_0_0: flow_9_13_0_0 - 1000 edge_9_13_0_0 <= 0
 inactive_no_flow_9_15_0_0: flow_9_15_0_0 - 1000 edge_9_15_0_0 <= 0
 inactive_no_flow_9_16_0_0: flow_9_16_0_0 - 1000 edge_9_16_0_0 <= 0
 inactive_no_flow_11_8_0_0: flow_11_8_0_0 - 1000 edge_11_8_0_0 <= 0
 inactive_no_flow_11_9_0_0: flow_11_9_0_0 - 1000 edge_11_9_0_0 <= 0
 inactive_no_flow_12_2_0_0: flow_12_2_0_0 - 1000 edge_12_2_0_0 <= 0
 inactive_no_flow_12_3_0_0: flow_12_3_0_0 - 1000 edge_12_3_0_0 <= 0
 inactive_no_flow_12_8_0_0: flow_12_8_0_0 - 1000 edge_12_8_0_0 <= 0
 inactive_no_flow_12_13_0_0: flow_12_13_0_0 - 1000 edge_12_13_0_0 <= 0
 inactive_no_flow_12_15_0_0: flow_12_15_0_0 - 1000 edge_12_15_0_0 <= 0
 inactive_no_flow_12_16_0_0: flow_12_16_0_0 - 1000 edge_12_16_0_0 <= 0
 inactive_no_flow_13_12_0_0: flow_13_12_0_0 - 1000 edge_13_12_0_0 <= 0
 inactive_no_flow_13_15_0_0: flow_13_15_0_0 - 1000 edge_13_15_0_0 <= 0
 inactive_no_flow_13_16_0_0: flow_13_16_0_0 - 1000 edge_13_16_0_0 <= 0
 inactive_no_flow_15_1_0_0: flow_15_1_0_0 - 1000 edge_15_1_0_0 <= 0
 inactive_no_flow_15_2_0_0: flow_15_2_0_0 - 1000 edge_15_2_0_0 <= 0
 inactive_no_flow_15_3_0_0: flow_15_3_0_0 - 1000 edge_15_3_0_0 <= 0
 inactive_no_flow_15_5_0_0: flow_15_5_0_0 - 1000 edge_15_5_0_0 <= 0
 inactive_no_flow_15_8_0_0: flow_15_8_0_0 - 1000 edge_15_8_0_0 <= 0
 inactive_no_flow_15_12_0_0: flow_15_12_0_0 - 1000 edge_15_12_0_0 <= 0
 inactive_no_flow_15_13_0_0: flow_15_13_0_0 - 1000 edge_15_13_0_0 <= 0
 inactive_no_flow_15_16_0_0: flow_15_16_0_0 - 1000 edge_15_16_0_0 <= 0
 inactive_no_flow_16_1_0_0: flow_16_1_0_0 - 1000 edge_16_1_0_0 <= 0
 inactive_no_flow_16_2_0_0: flow_16_2_0_0 - 1000 edge_16_2_0_0 <= 0
 inactive_no_flow_16_3_0_0: flow_16_3_0_0 - 1000 edge_16_3_0_0 <= 0
 inactive_no_flow_16_5_0_0: flow_16_5_0_0 - 1000 edge_16_5_0_0 <= 0
 inactive_no_flow_16_6_0_0: flow_16_6_0_0 - 1000 edge_16_6_0_0 <= 0
 inactive_no_flow_16_7_0_0: flow_16_7_0_0 - 1000 edge_16_7_0_0 <= 0
 inactive_no_flow_16_8_0_0: flow_16_8_0_0 - 1000 edge_16_8_0_0 <= 0
 inactive_no_flow_16_9_0_0: flow_16_9_0_0 - 1000 edge_16_9_0_0 <= 0
 inactive_no_flow_16_11_0_0: flow_16_11_0_0 - 1000 edge_16_11_0_0 <= 0
 inactive_no_flow_16_12_0_0: flow_16_12_0_0 - 1000 edge_16_12_0_0 <= 0
 inactive_no_flow_16_13_0_0: flow_16_13_0_0 - 1000 edge_16_13_0_0 <= 0
 inactive_no_flow_16_15_0_0: flow_16_15_0_0 - 1000 edge_16_15_0_0 <= 0
Bounds
Binaries
 edge_0_1_0_0 edge_0_2_0_0 edge_0_3_0_0 edge_0_5_0_0 edge_0_9_0_0
 edge_0_16_0_0 edge_1_2_0_0 edge_1_3_0_0 edge_1_5_0_0 edge_1_6_0_0
 edge_1_7_0_0 edge_1_11_0_0 edge_2_1_0_0 edge_2_3_0_0 edge_2_4_0_0
 edge_2_5_0_0 edge_2_6_0_0 edge_2_7_0_0 edge_2_9_0_0 edge_2_11_0_0
 edge_3_1_0_0 edge_3_2_0_0 edge_3_4_0_0 edge_3_5_0_0 edge_3_6_0_0
 edge_3_7_0_0 edge_3_8_0_0 edge_3_9_0_0 edge_3_11_0_0 edge_3_12_0_0
 edge_3_13_0_0 edge_3_15_0_0 edge_3_16_0_0 edge_4_1_0_0 edge_4_2_0_0
 edge_4_6_0_0 edge_4_7_0_0 edge_4_8_0_0 edge_4_9_0_0 edge_4_11_0_0
 edge_5_1_0_0 edge_5_2_0_0 edge_5_3_0_0 edge_5_4_0_0 edge_5_6_0_0
 edge_5_7_0_0 edge_5_8_0_0 edge_5_9_0_0 edge_5_11_0_0 edge_5_12_0_0
 edge_5_13_0_0 edge_5_16_0_0 edge_6_5_0_0 edge_6_7_0_0 edge_7_5_0_0
 edge_7_6_0_0 edge_7_8_0_0 edge_7_9_0_0 edge_7_11_0_0 edge_8_1_0_0
 edge_8_3_0_0 edge_8_6_0_0 edge_8_7_0_0 edge_8_9_0_0 edge_8_11_0_0
 edge_8_12_0_0 edge_8_13_0_0 edge_8_16_0_0 edge_9_1_0_0 edge_9_2_0_0
 edge_9_3_0_0 edge_9_4_0_0 edge_9_5_0_0 edge_9_6_0_0 edge_9_7_0_0
 edge_9_8_0_0 edge_9_11_0_0 edge_9_12_0_0 edge_9_13_0_0 edge_9_15_0_0
 edge_9_16_0_0 edge_11_8_0_0 edge_11_9_0_0 edge_12_2_0_0 edge_12_3_0_0
 edge_12_8_0_0 edge_12_13_0_0 edge_12_15_0_0 edge_12_16_0_0 edge_13_12_0_0
 edge_13_15_0_0 edge_13_16_0_0 edge_15_1_0_0 edge_15_2_0_0 edge_15_3_0_0
 edge_15_5_0_0 edge_15_8_0_0 edge_15_12_0_0 edge_15_13_0_0 edge_15_16_0_0
 edge_16_1_0_0 edge_16_2_0_0 edge_16_3_0_0 edge_16_5_0_0 edge_16_6_0_0
 edge_16_7_0_0 edge_16_8_0_0 edge_16_9_0_0 edge_16_11_0_0 edge_16_12_0_0
 edge_16_13_0_0 edge_16_15_0_0
End
